<number of tasks>
20

<cycle time>
1000

<order strength>
0,521


<task times>
1 160
2 484
3 339
4 119
5 576
6 198
7 279
8 231
9 118
10 163
11 209
12 256
13 152
14 228
15 296
16 106
17 432
18 163
19 255
20 126

<precedence relations>
1,4
2,6
3,5
3,7
3,8
4,11
5,9
6,10
7,11
8,11
9,13
10,12
11,13
11,14
12,15
13,15
13,16
14,16
14,17
15,20
16,18
16,19
17,18
17,19

<end>
